benchmarks/ising_models/2DLattices/SqrLattices/J_unif_-1,1/4x4_square_lattice_unif_frust.wcnf
p wcnf 40 96
w -2 1.196282 0
w 2 0.835923 0
w -3 0.487728 0
w 3 2.050325 0
w -5 0.919055 0
w 5 1.088074 0
w -6 0.498116 0
w 6 2.007564 0
w -8 2.414734 0
w 8 0.414124 0
w -9 1.659885 0
w 9 0.602451 0
w -11 0.678289 0
w 11 1.474298 0
w -13 2.511213 0
w 13 0.398214 0
w -14 2.366390 0
w 14 0.422585 0
w -16 2.269844 0
w 16 0.440559 0
w -17 1.493872 0
w 17 0.669401 0
w -19 1.254385 0
w 19 0.797204 0
w -20 0.567645 0
w 20 1.761666 0
w -22 0.602146 0
w 22 1.660728 0
w -24 1.594389 0
w 24 0.627200 0
w -25 0.653422 0
w 25 1.530405 0
w -27 0.769167 0
w 27 1.300108 0
w -28 0.775336 0
w 28 1.289763 0
w -30 1.919807 0
w 30 0.520886 0
w -31 2.539604 0
w 31 0.393762 0
w -33 1.788537 0
w 33 0.559116 0
w -35 0.509330 0
w 35 1.963363 0
w -37 0.413847 0
w 37 2.416350 0
w -39 0.460806 0
w 39 2.170109 0
2 1 4 0
2 -1 -4 0
-2 1 -4 0
-2 -1 4 0
3 1 12 0
3 -1 -12 0
-3 1 -12 0
-3 -1 12 0
5 4 7 0
5 -4 -7 0
-5 4 -7 0
-5 -4 7 0
6 4 15 0
6 -4 -15 0
-6 4 -15 0
-6 -4 15 0
8 7 10 0
8 -7 -10 0
-8 7 -10 0
-8 -7 10 0
9 7 18 0
9 -7 -18 0
-9 7 -18 0
-9 -7 18 0
11 10 21 0
11 -10 -21 0
-11 10 -21 0
-11 -10 21 0
13 12 15 0
13 -12 -15 0
-13 12 -15 0
-13 -12 15 0
14 12 23 0
14 -12 -23 0
-14 12 -23 0
-14 -12 23 0
16 15 18 0
16 -15 -18 0
-16 15 -18 0
-16 -15 18 0
17 15 26 0
17 -15 -26 0
-17 15 -26 0
-17 -15 26 0
19 18 21 0
19 -18 -21 0
-19 18 -21 0
-19 -18 21 0
20 18 29 0
20 -18 -29 0
-20 18 -29 0
-20 -18 29 0
22 21 32 0
22 -21 -32 0
-22 21 -32 0
-22 -21 32 0
24 23 26 0
24 -23 -26 0
-24 23 -26 0
-24 -23 26 0
25 23 34 0
25 -23 -34 0
-25 23 -34 0
-25 -23 34 0
27 26 29 0
27 -26 -29 0
-27 26 -29 0
-27 -26 29 0
28 26 36 0
28 -26 -36 0
-28 26 -36 0
-28 -26 36 0
30 29 32 0
30 -29 -32 0
-30 29 -32 0
-30 -29 32 0
31 29 38 0
31 -29 -38 0
-31 29 -38 0
-31 -29 38 0
33 32 40 0
33 -32 -40 0
-33 32 -40 0
-33 -32 40 0
35 34 36 0
35 -34 -36 0
-35 34 -36 0
-35 -34 36 0
37 36 38 0
37 -36 -38 0
-37 36 -38 0
-37 -36 38 0
39 38 40 0
39 -38 -40 0
-39 38 -40 0
-39 -38 40 0
