benchmarks/ising_models/2DLattices/SqrLattices/J_unif_-1,1/4x4_square_lattice_unif_frust
ISING
16
2 2 2 2 2 2 2 2 2 2 2 2 2 2 2 2
0 24 1.0 1
2 0 1
2 0 4
2 1 2
2 1 5
2 2 3
2 2 6
2 3 7
2 4 5
2 4 8
2 5 6
2 5 9
2 6 7
2 6 10
2 7 11
2 8 9
2 8 12
2 9 10
2 9 13
2 10 11
2 10 14
2 11 15
2 12 13
2 13 14
2 14 15

4
 -0.17921818340840345 0.17921818340840345
 0.17921818340840345 -0.17921818340840345
4
 0.7179982459714447 -0.7179982459714447
 -0.7179982459714447 0.7179982459714447
4
 0.08440916794720854 -0.08440916794720854
 -0.08440916794720854 0.08440916794720854
4
 0.6969218930236527 -0.6969218930236527
 -0.6969218930236527 0.6969218930236527
4
 -0.8815889361498679 0.8815889361498679
 0.8815889361498679 -0.8815889361498679
4
 -0.506748348773135 0.506748348773135
 0.506748348773135 -0.506748348773135
4
 0.38818205272512807 -0.38818205272512807
 -0.38818205272512807 0.38818205272512807
4
 -0.9207657989319267 0.9207657989319267
 0.9207657989319267 -0.9207657989319267
4
 -0.8613657739869149 0.8613657739869149
 0.8613657739869149 -0.8613657739869149
4
 -0.8197108912973301 0.8197108912973301
 0.8197108912973301 -0.8197108912973301
4
 -0.4013715303571923 0.4013715303571923
 0.4013715303571923 -0.4013715303571923
4
 -0.22664523514830903 0.22664523514830903
 0.22664523514830903 -0.22664523514830903
4
 0.5662598965464387 -0.5662598965464387
 -0.5662598965464387 0.5662598965464387
4
 0.5072559325268382 -0.5072559325268382
 -0.5072559325268382 0.5072559325268382
4
 -0.4664904200227764 0.4664904200227764
 0.4664904200227764 -0.4664904200227764
4
 0.42553216973889496 -0.42553216973889496
 -0.42553216973889496 0.42553216973889496
4
 0.2624475207606656 -0.2624475207606656
 -0.2624475207606656 0.2624475207606656
4
 0.2544582480275841 -0.2544582480275841
 -0.2544582480275841 0.2544582480275841
4
 -0.652224564857423 0.652224564857423
 0.652224564857423 -0.652224564857423
4
 -0.9320080373543591 0.9320080373543591
 0.9320080373543591 -0.9320080373543591
4
 -0.5813978656293584 0.5813978656293584
 0.5813978656293584 -0.5813978656293584
4
 0.6746587897984584 -0.6746587897984584
 -0.6746587897984584 0.6746587897984584
4
 0.8822582680074229 -0.8822582680074229
 -0.8822582680074229 0.8822582680074229
4
 0.7747774325772132 -0.7747774325772132
 -0.7747774325772132 0.7747774325772132
